NAME : n40w120.005.470.tour
COMMENT : Length = 470
COMMENT : Found by LKH [Keld Helsgaun] Tue Nov  7 19:39:11 2017
TYPE : TOUR
DIMENSION : 41
TOUR_SECTION
1
6
39
29
22
25
13
30
15
12
4
14
28
3
33
35
27
9
38
18
37
19
7
5
34
17
20
21
26
10
24
23
8
2
40
16
31
41
32
36
11
-1
EOF
